SimulationType     MonteCarlo
NumberofCycles     0
PrintEvery     1

Framework      0
FrameworkName      graphite
UnitCells      1 1 1
